c CNF formula (p10 v !p5) ^ (p8) ^ (!p2 v !p11 v p1 v p3 v p7) ^ (!p1 v !p7 v p10 v p9 v p3) ^ (p6 v !p1 v p7 v !p11) ^ (!p5 v p11 v !p4) ^ (!p8 v p7 v !p9 v !p6 v !p3 v p1) ^ (!p7 v p3) ^ (!p11 v !p5 v !p6 v p3) ^ (p9) ^ (!p7) ^ (p2 v !p8 v !p3 v !p10 v p4) ^ (!p8 v !p6 v !p7) ^ (!p4 v p8 v !p5 v p1) ^ (p8 v !p5 v !p1) ^ (!p3 v !p7 v p10) ^ (!p3 v p5 v p4 v !p11) ^ (p3 v p10 v !p8 v !p5 v !p6) ^ (!p8) ^ (!p1) ^ (!p4 v !p5 v p10) ^ (p3 v !p10 v !p1 v !p8 v p5) ^ (!p5 v !p8 v p6 v !p10 v p9 v p11) ^ (!p2 v p1 v p9) ^ (p1 v p11 v !p6 v !p10 v p2) ^ (p8 v !p6 v p7) ^ (p2) ^ (p6 v !p1 v !p7 v p5 v !p4) ^ (p7 v !p8) ^ (!p1 v p11 v p7 v !p4)
p cnf 11 30
10 -5 0
8 0
-2 -11 1 3 7 0
-1 -7 10 9 3 0
6 -1 7 -11 0
-5 11 -4 0
-8 7 -9 -6 -3 1 0
-7 3 0
-11 -5 -6 3 0
9 0
-7 0
2 -8 -3 -10 4 0
-8 -6 -7 0
-4 8 -5 1 0
8 -5 -1 0
-3 -7 10 0
-3 5 4 -11 0
3 10 -8 -5 -6 0
-8 0
-1 0
-4 -5 10 0
3 -10 -1 -8 5 0
-5 -8 6 -10 9 11 0
-2 1 9 0
1 11 -6 -10 2 0
8 -6 7 0
2 0
6 -1 -7 5 -4 0
7 -8 0
-1 11 7 -4 0